(set-info :smt-lib-version 2.6)
(set-logic QF_ALIA)
(set-info :notes "Adapted for Array Sum evaluation.
Base file: qlock.induction.7.smt2")
(set-info :source |
Unbounded version of the queue lock algorithm.
|)
(set-info :category "industrial")
(declare-fun x_0 () (Array Int Int))
(declare-fun x_1 () Int)
(declare-fun x_2 () Int)
(declare-fun x_3 () (Array Int Int))
(declare-fun x_4 () (Array Int Int))
(declare-fun x_5 () (Array Int Int))
(declare-fun x_6 () (Array Int Int))
(declare-fun x_7 () (Array Int Int))
(declare-fun x_8 () (Array Int Int))
(declare-fun x_9 () (Array Int Int))
(declare-fun x_10 () Int)
(declare-fun x_11 () Int)
(declare-fun x_12 () (Array Int Int))
(declare-fun x_13 () Int)
(declare-fun x_14 () Bool)
(declare-fun x_15 () Bool)
(declare-fun x_16 () Int)
(declare-fun x_17 () Int)
(declare-fun x_18 () Int)
(declare-fun x_19 () Int)
(declare-fun x_20 () Int)
(declare-fun x_21 () Int)
(declare-fun x_22 () Int)
(declare-fun x_23 () Int)
(declare-fun x_24 () Int)
(declare-fun x_25 () Int)
(declare-fun x_26 () Int)
(declare-fun x_27 () Int)
(declare-fun x_28 () (Array Int Int))
(declare-fun x_29 () Int)
(declare-fun x_30 () Bool)
(declare-fun x_31 () Int)
(declare-fun x_32 () Int)
(declare-fun x_33 () Int)
(declare-fun x_34 () Int)
(declare-fun x_35 () Int)
(declare-fun x_36 () Int)
(declare-fun x_37 () Int)
(declare-fun x_38 () Int)
(declare-fun x_39 () Int)
(declare-fun x_40 () Int)
(declare-fun x_41 () (Array Int Int))
(declare-fun x_42 () Int)
(declare-fun x_43 () Bool)
(declare-fun x_44 () Int)
(declare-fun x_45 () Int)
(declare-fun x_46 () Int)
(declare-fun x_47 () Int)
(declare-fun x_48 () Int)
(declare-fun x_49 () Int)
(declare-fun x_50 () Int)
(declare-fun x_51 () Int)
(declare-fun x_52 () Int)
(declare-fun x_53 () Int)
(declare-fun x_54 () (Array Int Int))
(declare-fun x_55 () Int)
(declare-fun x_56 () Bool)
(declare-fun x_57 () Int)
(declare-fun x_58 () Int)
(declare-fun x_59 () Int)
(declare-fun x_60 () Int)
(declare-fun x_61 () Int)
(declare-fun x_62 () Int)
(declare-fun x_63 () Int)
(declare-fun x_64 () Int)
(declare-fun x_65 () Int)
(declare-fun x_66 () Int)
(declare-fun x_67 () (Array Int Int))
(declare-fun x_68 () Int)
(declare-fun x_69 () Bool)
(declare-fun x_70 () Int)
(declare-fun x_71 () Int)
(declare-fun x_72 () Int)
(declare-fun x_73 () Int)
(declare-fun x_74 () Int)
(declare-fun x_75 () Int)
(declare-fun x_76 () Int)
(declare-fun x_77 () Int)
(declare-fun x_78 () Int)
(declare-fun x_79 () Int)
(declare-fun x_80 () (Array Int Int))
(declare-fun x_81 () Int)
(declare-fun x_82 () Bool)
(declare-fun x_83 () Int)
(declare-fun x_84 () Int)
(declare-fun x_85 () Int)
(declare-fun x_86 () Int)
(declare-fun x_87 () Int)
(declare-fun x_88 () Int)
(declare-fun x_89 () Int)
(declare-fun x_90 () Int)
(declare-fun x_91 () Int)
(declare-fun x_92 () Int)
(declare-fun x_93 () (Array Int Int))
(declare-fun x_94 () Int)
(declare-fun x_95 () Bool)
(declare-fun x_96 () Int)
(declare-fun x_97 () Int)
(declare-fun x_98 () Int)
(declare-fun x_99 () Int)
(declare-fun x_100 () Int)
(declare-fun x_101 () (Array Int Int))
(declare-fun x_102 () Int)
(declare-fun x_103 () Int)
(declare-fun x_104 () Int)
(declare-fun x_105 () Int)
(declare-fun x_106 () Int)
(declare-fun x_107 () Int)
(declare-fun x_108 () Int)
(declare-fun x_109 () Int)
(declare-fun x_110 () Int)
(declare-fun x_111 () Int)
(declare-fun x_112 () Int)
(declare-fun x_113 () Int)
(declare-fun x_114 () Int)
(declare-fun x_115 () Int)
(declare-fun x_116 () Int)
(declare-fun x_117 () Int)
(declare-fun x_118 () Int)
(declare-fun x_119 () Int)
(declare-fun x_120 () Int)
(declare-fun x_121 () Int)
(declare-fun x_122 () Int)
(declare-fun x_123 () Int)
(declare-fun x_124 () Int)
(declare-fun x_125 () Int)
(declare-fun x_126 () Int)
(declare-fun x_127 () Int)
(declare-fun x_128 () Int)
(declare-fun x_129 () Int)
(declare-fun x_130 () Int)
(declare-fun x_131 () Int)
(declare-fun x_132 () Int)
(declare-fun x_133 () Int)
(declare-fun x_134 () Int)
(declare-fun x_135 () Int)
(declare-fun x_136 () Int)
(declare-fun x_137 () Int)
(declare-fun x_138 () Int)
(declare-fun x_139 () Int)
(declare-fun x_140 () Int)
(declare-fun x_141 () Int)
(declare-fun x_142 () Int)
(declare-fun x_143 () Int)
(declare-fun x_144 () Int)
(declare-fun x_145 () Int)
(declare-fun x_146 () Int)
(declare-fun x_147 () Int)
(declare-fun x_148 () Int)
(declare-fun x_149 () Int)
(assert (let ((?v_33 (= x_12 x_9)) (?v_30 (= x_13 x_10)) (?v_31 (= x_14 x_15)) (?v_34 (= x_16 x_17)) (?v_32 (not (<= x_17 x_10))) (?v_28 (= x_28 x_12)) (?v_25 (= x_29 x_13)) (?v_26 (= x_30 x_14)) (?v_29 (= x_31 x_16)) (?v_27 (not (<= x_16 x_13))) (?v_23 (= x_41 x_28)) (?v_20 (= x_42 x_29)) (?v_21 (= x_43 x_30)) (?v_24 (= x_44 x_31)) (?v_22 (not (<= x_31 x_29))) (?v_18 (= x_54 x_41)) (?v_15 (= x_55 x_42)) (?v_16 (= x_56 x_43)) (?v_19 (= x_57 x_44)) (?v_17 (not (<= x_44 x_42))) (?v_13 (= x_67 x_54)) (?v_10 (= x_68 x_55)) (?v_11 (= x_69 x_56)) (?v_14 (= x_70 x_57)) (?v_12 (not (<= x_57 x_55))) (?v_8 (= x_80 x_67)) (?v_5 (= x_81 x_68)) (?v_6 (= x_82 x_69)) (?v_9 (= x_83 x_70)) (?v_7 (not (<= x_70 x_68))) (?v_3 (= x_93 x_80)) (?v_0 (= x_94 x_81)) (?v_1 (= x_95 x_82)) (?v_4 (= x_96 x_83)) (?v_2 (not (<= x_83 x_81)))) (and (and (and (and (and (and (and (and (and (and (and (and (and (and (and (and (and (and (and (and (and (and (and (and (and (and (and (and (and (and (and (and (and (and (and (and (and (and (and (and (and (and (and (and (and (and (and (and (and (and (and (and (and (and (and (and (and (and (and (and (and (and (and (and (and (and (and (and (and (and (and (and (and (and (not (= x_2 x_1)) (= x_106 (select x_8 x_1))) (= x_107 (select x_8 x_2))) (or (not (= x_106 3)) (not (= x_107 3)))) (= x_108 (select x_7 x_1))) (= x_109 (select x_7 x_2))) (or (not (= x_108 3)) (not (= x_109 3)))) (= x_110 (select x_6 x_1))) (= x_111 (select x_6 x_2))) (or (not (= x_110 3)) (not (= x_111 3)))) (= x_112 (select x_5 x_1))) (= x_113 (select x_5 x_2))) (or (not (= x_112 3)) (not (= x_113 3)))) (= x_114 (select x_4 x_1))) (= x_115 (select x_4 x_2))) (or (not (= x_114 3)) (not (= x_115 3)))) (= x_116 (select x_3 x_1))) (= x_117 (select x_3 x_2))) (or (not (= x_116 3)) (not (= x_117 3)))) (= x_118 (select x_0 x_1))) (= x_119 (select x_0 x_2))) (or (not (= x_118 3)) (not (= x_119 3)))) (= x_120 (select x_9 x_10))) (= x_11 x_120)) (= x_121 (select x_12 x_13))) (= x_27 x_121)) (= x_122 (select x_28 x_29))) (= x_40 x_122)) (= x_123 (select x_41 x_42))) (= x_53 x_123)) (= x_124 (select x_54 x_55))) (= x_66 x_124)) (= x_125 (select x_67 x_68))) (= x_79 x_125)) (= x_126 (select x_80 x_81))) (= x_92 x_126)) (= x_97 (+ x_84 1))) (= x_127 (select x_8 x_99))) (= x_128 (select x_8 x_102))) (= x_129 (select x_8 x_104))) (or (or (or (and (and (and (and (and (and (and (= x_98 0) (= x_96 (+ x_83 1))) ?v_0) ?v_1) (= x_100 x_99)) (= x_127 1)) (= x_101 (store x_8 x_99 2))) (= x_93 (store x_80 x_83 x_99))) (and (and (and (and (and (and (and (and (and (= x_98 1) ?v_2) ?v_0) ?v_1) ?v_3) ?v_4) (= x_103 x_102)) (= x_128 2)) (= x_92 x_102)) (= x_101 (store x_8 x_102 3)))) (and (and (and (and (and (and (and (and (and (= x_98 2) ?v_2) (= x_94 (+ x_81 1))) ?v_1) ?v_3) ?v_4) (= x_105 x_104)) (= x_129 3)) (or (not (<= x_84 12)) (= x_92 x_104))) (= x_101 (store x_8 x_104 1)))) (and (and (and (and (and (= x_98 3) ?v_3) ?v_0) ?v_1) (= x_101 x_8)) ?v_4))) (= x_84 (+ x_71 1))) (= x_130 (select x_7 x_86))) (= x_131 (select x_7 x_88))) (= x_132 (select x_7 x_90))) (or (or (or (and (and (and (and (and (and (and (= x_85 0) (= x_83 (+ x_70 1))) ?v_5) ?v_6) (= x_87 x_86)) (= x_130 1)) (= x_8 (store x_7 x_86 2))) (= x_80 (store x_67 x_70 x_86))) (and (and (and (and (and (and (and (and (and (= x_85 1) ?v_7) ?v_5) ?v_6) ?v_8) ?v_9) (= x_89 x_88)) (= x_131 2)) (= x_79 x_88)) (= x_8 (store x_7 x_88 3)))) (and (and (and (and (and (and (and (and (and (= x_85 2) ?v_7) (= x_81 (+ x_68 1))) ?v_6) ?v_8) ?v_9) (= x_91 x_90)) (= x_132 3)) (or (not (<= x_71 12)) (= x_79 x_90))) (= x_8 (store x_7 x_90 1)))) (and (and (and (and (and (= x_85 3) ?v_8) ?v_5) ?v_6) (= x_8 x_7)) ?v_9))) (= x_71 (+ x_58 1))) (= x_133 (select x_6 x_73))) (= x_134 (select x_6 x_75))) (= x_135 (select x_6 x_77))) (or (or (or (and (and (and (and (and (and (and (= x_72 0) (= x_70 (+ x_57 1))) ?v_10) ?v_11) (= x_74 x_73)) (= x_133 1)) (= x_7 (store x_6 x_73 2))) (= x_67 (store x_54 x_57 x_73))) (and (and (and (and (and (and (and (and (and (= x_72 1) ?v_12) ?v_10) ?v_11) ?v_13) ?v_14) (= x_76 x_75)) (= x_134 2)) (= x_66 x_75)) (= x_7 (store x_6 x_75 3)))) (and (and (and (and (and (and (and (and (and (= x_72 2) ?v_12) (= x_68 (+ x_55 1))) ?v_11) ?v_13) ?v_14) (= x_78 x_77)) (= x_135 3)) (or (not (<= x_58 12)) (= x_66 x_77))) (= x_7 (store x_6 x_77 1)))) (and (and (and (and (and (= x_72 3) ?v_13) ?v_10) ?v_11) (= x_7 x_6)) ?v_14))) (= x_58 (+ x_45 1))) (= x_136 (select x_5 x_60))) (= x_137 (select x_5 x_62))) (= x_138 (select x_5 x_64))) (or (or (or (and (and (and (and (and (and (and (= x_59 0) (= x_57 (+ x_44 1))) ?v_15) ?v_16) (= x_61 x_60)) (= x_136 1)) (= x_6 (store x_5 x_60 2))) (= x_54 (store x_41 x_44 x_60))) (and (and (and (and (and (and (and (and (and (= x_59 1) ?v_17) ?v_15) ?v_16) ?v_18) ?v_19) (= x_63 x_62)) (= x_137 2)) (= x_53 x_62)) (= x_6 (store x_5 x_62 3)))) (and (and (and (and (and (and (and (and (and (= x_59 2) ?v_17) (= x_55 (+ x_42 1))) ?v_16) ?v_18) ?v_19) (= x_65 x_64)) (= x_138 3)) (or (not (<= x_45 12)) (= x_53 x_64))) (= x_6 (store x_5 x_64 1)))) (and (and (and (and (and (= x_59 3) ?v_18) ?v_15) ?v_16) (= x_6 x_5)) ?v_19))) (= x_45 (+ x_32 1))) (= x_139 (select x_4 x_47))) (= x_140 (select x_4 x_49))) (= x_141 (select x_4 x_51))) (or (or (or (and (and (and (and (and (and (and (= x_46 0) (= x_44 (+ x_31 1))) ?v_20) ?v_21) (= x_48 x_47)) (= x_139 1)) (= x_5 (store x_4 x_47 2))) (= x_41 (store x_28 x_31 x_47))) (and (and (and (and (and (and (and (and (and (= x_46 1) ?v_22) ?v_20) ?v_21) ?v_23) ?v_24) (= x_50 x_49)) (= x_140 2)) (= x_40 x_49)) (= x_5 (store x_4 x_49 3)))) (and (and (and (and (and (and (and (and (and (= x_46 2) ?v_22) (= x_42 (+ x_29 1))) ?v_21) ?v_23) ?v_24) (= x_52 x_51)) (= x_141 3)) (or (not (<= x_32 12)) (= x_40 x_51))) (= x_5 (store x_4 x_51 1)))) (and (and (and (and (and (= x_46 3) ?v_23) ?v_20) ?v_21) (= x_5 x_4)) ?v_24))) (= x_32 (+ x_18 1))) (= x_142 (select x_3 x_34))) (= x_143 (select x_3 x_36))) (= x_144 (select x_3 x_38))) (or (or (or (and (and (and (and (and (and (and (= x_33 0) (= x_31 (+ x_16 1))) ?v_25) ?v_26) (= x_35 x_34)) (= x_142 1)) (= x_4 (store x_3 x_34 2))) (= x_28 (store x_12 x_16 x_34))) (and (and (and (and (and (and (and (and (and (= x_33 1) ?v_27) ?v_25) ?v_26) ?v_28) ?v_29) (= x_37 x_36)) (= x_143 2)) (= x_27 x_36)) (= x_4 (store x_3 x_36 3)))) (and (and (and (and (and (and (and (and (and (= x_33 2) ?v_27) (= x_29 (+ x_13 1))) ?v_26) ?v_28) ?v_29) (= x_39 x_38)) (= x_144 3)) (or (not (<= x_18 12)) (= x_27 x_38))) (= x_4 (store x_3 x_38 1)))) (and (and (and (and (and (= x_33 3) ?v_28) ?v_25) ?v_26) (= x_4 x_3)) ?v_29))) (= x_18 (+ x_19 1))) (= x_145 (select x_0 x_21))) (= x_146 (select x_0 x_23))) (= x_147 (select x_0 x_25))) (or (or (or (and (and (and (and (and (and (and (= x_20 0) (= x_16 (+ x_17 1))) ?v_30) ?v_31) (= x_22 x_21)) (= x_145 1)) (= x_3 (store x_0 x_21 2))) (= x_12 (store x_9 x_17 x_21))) (and (and (and (and (and (and (and (and (and (= x_20 1) ?v_32) ?v_30) ?v_31) ?v_33) ?v_34) (= x_24 x_23)) (= x_146 2)) (= x_11 x_23)) (= x_3 (store x_0 x_23 3)))) (and (and (and (and (and (and (and (and (and (= x_20 2) ?v_32) (= x_13 (+ x_10 1))) ?v_31) ?v_33) ?v_34) (= x_26 x_25)) (= x_147 3)) (or (not (<= x_19 12)) (= x_11 x_25))) (= x_3 (store x_0 x_25 1)))) (and (and (and (and (and (= x_20 3) ?v_33) ?v_30) ?v_31) (= x_3 x_0)) ?v_34))) (= x_148 (select x_101 x_1))) (= x_148 3)) (= x_149 (select x_101 x_2))) (= x_149 3))))
; --- Injected Array Sum Constraint ---
(assert (sum x_41 (+ x_49 (+ x_85 x_122))))
(assert (sum x_6 (+ x_100 (+ x_10 x_1))))
(assert (sum x_93 (+ x_13 (+ x_113 x_142))))
(assert (sum x_93 (+ x_126 (+ x_39 x_19))))
(assert (sum x_80 (+ x_102 (+ x_25 x_113))))
(assert (sum x_28 (+ x_119 (+ x_126 x_136))))
(assert (sum x_54 (+ x_70 (+ x_148 x_119))))
(assert (sum x_67 (+ x_11 (+ x_117 x_124))))
(assert (sum x_4 (+ x_35 (+ x_126 x_132))))
(assert (sum x_93 (+ x_25 (+ x_59 x_42))))
(check-sat)
(exit)